Please solve the following SAT Problem encoded in DIMACS format, provide line of thoughts, write your final answer as a single solution at the end of response with header 'answer: ' : 
p cnf 5 12
-4 5 3 0
-1 -2 -4 0
-1 -3 5 0
-2 4 1 0
-2 3 4 0
-5 2 3 0
5 3 2 0
-2 1 5 0
5 -1 3 0
3 -2 4 0
5 -4 -1 0
5 4 -2 0

